NAME obj
ROWS
 N  OBJ
 G  R0      
 G  R1      
 G  R2      
 G  R3      
 G  R4      
 G  R5      
 G  R6      
 G  R7      
 G  R8      
 G  R9      
 G  R10     
 G  R11     
 G  R12     
 G  R13     
 G  R14     
 G  R15     
 G  R16     
 G  R17     
 G  R18     
 G  R19     
 G  R20     
 G  R21     
 G  R22     
 G  R23     
 G  R24     
 G  R25     
 G  R26     
COLUMNS
    X0        OBJ       1
    X0        R0        1
    X0        R1        1
    X0        R2        1
    X0        R3        1
    X0        R6        1
    X0        R9        1
    X0        R18       1
    X1        OBJ       1
    X1        R0        1
    X1        R1        1
    X1        R2        1
    X1        R4        1
    X1        R7        1
    X1        R10       1
    X1        R19       1
    X2        OBJ       1
    X2        R0        1
    X2        R1        1
    X2        R2        1
    X2        R5        1
    X2        R8        1
    X2        R11       1
    X2        R20       1
    X3        OBJ       1
    X3        R0        1
    X3        R3        1
    X3        R4        1
    X3        R5        1
    X3        R6        1
    X3        R12       1
    X3        R21       1
    X4        OBJ       1
    X4        R1        1
    X4        R3        1
    X4        R4        1
    X4        R5        1
    X4        R7        1
    X4        R13       1
    X4        R22       1
    X5        OBJ       1
    X5        R2        1
    X5        R3        1
    X5        R4        1
    X5        R5        1
    X5        R8        1
    X5        R14       1
    X5        R23       1
    X6        OBJ       1
    X6        R0        1
    X6        R3        1
    X6        R6        1
    X6        R7        1
    X6        R8        1
    X6        R15       1
    X6        R24       1
    X7        OBJ       1
    X7        R1        1
    X7        R4        1
    X7        R6        1
    X7        R7        1
    X7        R8        1
    X7        R16       1
    X7        R25       1
    X8        OBJ       1
    X8        R2        1
    X8        R5        1
    X8        R6        1
    X8        R7        1
    X8        R8        1
    X8        R17       1
    X8        R26       1
    X9        OBJ       1
    X9        R0        1
    X9        R9        1
    X9        R10       1
    X9        R11       1
    X9        R12       1
    X9        R15       1
    X9        R18       1
    X10       OBJ       1
    X10       R1        1
    X10       R9        1
    X10       R10       1
    X10       R11       1
    X10       R13       1
    X10       R16       1
    X10       R19       1
    X11       OBJ       1
    X11       R2        1
    X11       R9        1
    X11       R10       1
    X11       R11       1
    X11       R14       1
    X11       R17       1
    X11       R20       1
    X12       OBJ       1
    X12       R3        1
    X12       R9        1
    X12       R12       1
    X12       R13       1
    X12       R14       1
    X12       R15       1
    X12       R21       1
    X13       OBJ       1
    X13       R4        1
    X13       R10       1
    X13       R12       1
    X13       R13       1
    X13       R14       1
    X13       R16       1
    X13       R22       1
    X14       OBJ       1
    X14       R5        1
    X14       R11       1
    X14       R12       1
    X14       R13       1
    X14       R14       1
    X14       R17       1
    X14       R23       1
    X15       OBJ       1
    X15       R6        1
    X15       R9        1
    X15       R12       1
    X15       R15       1
    X15       R16       1
    X15       R17       1
    X15       R24       1
    X16       OBJ       1
    X16       R7        1
    X16       R10       1
    X16       R13       1
    X16       R15       1
    X16       R16       1
    X16       R17       1
    X16       R25       1
    X17       OBJ       1
    X17       R8        1
    X17       R11       1
    X17       R14       1
    X17       R15       1
    X17       R16       1
    X17       R17       1
    X17       R26       1
    X18       OBJ       1
    X18       R0        1
    X18       R9        1
    X18       R18       1
    X18       R19       1
    X18       R20       1
    X18       R21       1
    X18       R24       1
    X19       OBJ       1
    X19       R1        1
    X19       R10       1
    X19       R18       1
    X19       R19       1
    X19       R20       1
    X19       R22       1
    X19       R25       1
    X20       OBJ       1
    X20       R2        1
    X20       R11       1
    X20       R18       1
    X20       R19       1
    X20       R20       1
    X20       R23       1
    X20       R26       1
    X21       OBJ       1
    X21       R3        1
    X21       R12       1
    X21       R18       1
    X21       R21       1
    X21       R22       1
    X21       R23       1
    X21       R24       1
    X22       OBJ       1
    X22       R4        1
    X22       R13       1
    X22       R19       1
    X22       R21       1
    X22       R22       1
    X22       R23       1
    X22       R25       1
    X23       OBJ       1
    X23       R5        1
    X23       R14       1
    X23       R20       1
    X23       R21       1
    X23       R22       1
    X23       R23       1
    X23       R26       1
    X24       OBJ       1
    X24       R6        1
    X24       R15       1
    X24       R18       1
    X24       R21       1
    X24       R24       1
    X24       R25       1
    X24       R26       1
    X25       OBJ       1
    X25       R7        1
    X25       R16       1
    X25       R19       1
    X25       R22       1
    X25       R24       1
    X25       R25       1
    X25       R26       1
    X26       OBJ       1
    X26       R8        1
    X26       R17       1
    X26       R20       1
    X26       R23       1
    X26       R24       1
    X26       R25       1
    X26       R26       1
RHS
    RHS1      R0        1
    RHS1      R1        1
    RHS1      R2        1
    RHS1      R3        1
    RHS1      R4        1
    RHS1      R5        1
    RHS1      R6        1
    RHS1      R7        1
    RHS1      R8        1
    RHS1      R9        1
    RHS1      R10       1
    RHS1      R11       1
    RHS1      R12       1
    RHS1      R13       1
    RHS1      R14       1
    RHS1      R15       1
    RHS1      R16       1
    RHS1      R17       1
    RHS1      R18       1
    RHS1      R19       1
    RHS1      R20       1
    RHS1      R21       1
    RHS1      R22       1
    RHS1      R23       1
    RHS1      R24       1
    RHS1      R25       1
    RHS1      R26       1
BOUNDS
 UP BND1      X0        1
 UP BND1      X1        1
 UP BND1      X2        1
 UP BND1      X3        1
 UP BND1      X4        1
 UP BND1      X5        1
 UP BND1      X6        1
 UP BND1      X7        1
 UP BND1      X8        1
 UP BND1      X9        1
 UP BND1      X10       1
 UP BND1      X11       1
 UP BND1      X12       1
 UP BND1      X13       1
 UP BND1      X14       1
 UP BND1      X15       1
 UP BND1      X16       1
 UP BND1      X17       1
 UP BND1      X18       1
 UP BND1      X19       1
 UP BND1      X20       1
 UP BND1      X21       1
 UP BND1      X22       1
 UP BND1      X23       1
 UP BND1      X24       1
 UP BND1      X25       1
 UP BND1      X26       1
ENDATA
